%-----------------------------------------------------------------------------%
% Dual Arm Multi Capacity Multi Tool Scheduling / Routing
% Assembly Configuration
% Auto Generated by python script, authored by Johan Ludde Wessen 
%-----------------------------------------------------------------------------%


task_durations = [|31, 26, 25, 25, 27, 24, 30, 49, 53, 62, 56, 59, 38, 56,  8,  6,  6,  4,  8,  4
                  |27, 22, 26, 23, 21, 27, 23, 43, 57, 58, 57, 55, 44, 52,  8,  5,  7,  4,  7,  6
                  |];


TRAY_TASKS = 1..5;
CAMERA_TASKS = {  };
OUTPUT_TASKS = { 14 };


empty_gripper_tasks = 15..20;


gripper_pick_tasks_orders = [|1, 8, -1
|2, 9, -1
|3, 10, -1
|4, 11, -1
|5, 12, -1
|6, 13, -1
|7, 14, -1
|];

suction_pick_tasks_orders = [||];

fixture_task_orders = [|8, 15, 9, 16, 6, -1, -1, -1, -1, -1
|10, 17, 11, 18, 12, 19, 13, 20, 7, -1
|];

